output ["D = \n",let {array [int] of string: idx1 = [], array [int] of string: idx2 = [], array [int,int] of string: x = [(i, j) : showDzn(D[i,j]) | i in 1..4, j in 1..4]} in (show2d_indexed(idx1,idx2,x)),";\n","s = \n",let {array [int] of string: idx1 = [], array [int] of string: idx2 = [], array [int,int] of string: x = [(i, j) : showDzn(s[i,j]) | i in 1..6, j in 1..4]} in (show2d_indexed(idx1,idx2,x)),";\n","pn = \n",let {array [int] of string: idx1 = [], array [int] of string: idx2 = [], array [int,int] of string: x = [(i, j) : showDzn(pn[i,j]) | i in 1..6, j in 1..4]} in (show2d_indexed(idx1,idx2,x)),";\n","utilidad = ",showDzn(utilidad),";\n"];
int: utilidad;
int: n = 4;
int: m = 6;
array [1..m,1..n] of int: pn;
array [1..m,1..n] of int: s;
array [1..n,1..n] of int: D = [|0,745,665,929|745,0,80,337|665,80,0,380|929,337,380,0|];
